data/results/2026_03_24_00_33_37_set_set_set_s004_g006_max.sol
# Objective value = 26
c_n0n3n5 3
c_n0n1n8 2
c_n1n2n6n8 4
c_n0n3n8 3
c_n2n4n8 2
c_n6n7n8 2
c_n2n6n8 2
c_n1n6n8 2
c_n1n2n8 3
c_n1n2n6 3
y_n0n1 1
y_n1n2 0
y_n0n2 1
y_n1n3 0
y_n0n3 0
y_n1n4 1
y_n0n4 1
y_n1n5 0
y_n0n5 0
y_n1n6 1
y_n0n6 1
y_n1n7 1
y_n0n7 1
y_n1n8 0
y_n0n8 1
y_n2n3 0
y_n2n4 1
y_n2n5 0
y_n2n6 1
y_n2n7 1
y_n2n8 0
y_n3n4 1
y_n3n5 0
y_n3n6 1
y_n3n7 1
y_n3n8 1
y_n4n5 0
y_n4n6 0
y_n4n7 0
y_n4n8 0
y_n5n6 1
y_n5n7 1
y_n5n8 1
y_n6n7 1
y_n6n8 0
y_n7n8 0
pos_n0 2
pos_n1 5
pos_n2 4
pos_n3 1
pos_n4 8
pos_n5 0
pos_n6 6
pos_n7 7
pos_n8 3
z_n3n8 0
z_n5n8 0
z_n1n8 0
z_n3n5 1
z_n1n3 0
z_n1n5 0
z_n0n8 1
z_n6n8 0
z_n2n8 1
z_n0n6 0
z_n0n2 0
z_n2n6 0
z_n1n6 1
z_n4n6 0
z_n1n4 0
z_n4n8 0
z_n0n5 0
z_n0n3 1
z_n7n8 0
z_n2n7 0
z_n1n7 0
z_n1n2 1
z_n3n6 0
z_n3n7 0
z_n2n3 0
z_n3n4 0
z_n0n7 0
z_n0n1 0
z_n0n4 0
z_n6n7 1
z_n4n7 0
z_n2n4 0
