logs/2026_03_24_00_33_37_set_set_set_s004_g006_max.log
[2026-03-24T00:33:37.907Z] Pipeline "set_set_set_s004_g006" → 2026_03_24_00_33_37_set_set_set_s004_g006_max.sol
Set parameter WLSAccessID
Set parameter WLSSecret
Set parameter LicenseID to value 2792458
Set parameter LogFile to value "gurobi.log"
Using license file /root/gurobi.lic
Academic license 2792458 - for non-commercial use only - registered to an___@studenti.unipg.it

Gurobi Optimizer version 13.0.1 build v13.0.1rc0 (linux64 - "Ubuntu 24.04.4 LTS")
Copyright (c) 2026, Gurobi Optimization, LLC

Warning: Duplicate section found (read 'binary') - Is a variable name equal to an LP file format keyword?
Warning: Duplicate section found (read 'binary') - Is a variable name equal to an LP file format keyword?
Warning: Duplicate section found (read 'binary') - Is a variable name equal to an LP file format keyword?
Warning: Duplicate section found (read 'binary') - Is a variable name equal to an LP file format keyword?
Warning: Duplicate section found (read 'binary') - Is a variable name equal to an LP file format keyword?
Warning: Duplicate section found (read 'binary') - Is a variable name equal to an LP file format keyword?
Warning: Duplicate section found (read 'binary') - Is a variable name equal to an LP file format keyword?
Warning: Duplicate section found (read 'binary') - Is a variable name equal to an LP file format keyword?
Warning: Duplicate section found (read 'binary') - Is a variable name equal to an LP file format keyword?
Warning: Duplicate section found (read 'binary') - Is a variable name equal to an LP file format keyword?
Warning: Further warnings of this type will be omitted.
Read LP format model from file /root/bgw/data/uploads/2026_03_24_00_33_37_set_set_set_s004_g006_max.lp
Reading time = 0.00 seconds
: 391 rows, 87 columns, 1036 nonzeros

Using Gurobi shared library /opt/gurobi1301/linux64/lib/libgurobi.so.13.0.1

CPU model: AMD EPYC-Genoa Processor, instruction set [SSE2|AVX|AVX2|AVX512]
Thread count: 16 physical cores, 16 logical processors, using up to 16 threads

Academic license 2792458 - for non-commercial use only - registered to an___@studenti.unipg.it
Optimize a model with 391 rows, 87 columns and 1036 nonzeros (Max)
Model fingerprint: 0x37d7c7c3
Model has 10 linear objective coefficients
Variable types: 19 continuous, 68 integer (68 binary)
Coefficient statistics:
  Matrix range     [1e+00, 1e+01]
  Objective range  [1e+00, 1e+00]
  Bounds range     [1e+00, 1e+00]
  RHS range        [1e+00, 1e+01]

Found heuristic solution: objective 10.0000000
Presolve removed 182 rows and 26 columns
Presolve time: 0.00s
Presolved: 209 rows, 61 columns, 681 nonzeros
Variable types: 0 continuous, 61 integer (52 binary)
Found heuristic solution: objective 16.0000000

Root relaxation: objective 4.300000e+01, 63 iterations, 0.00 seconds (0.00 work units)

    Nodes    |    Current Node    |     Objective Bounds      |     Work
 Expl Unexpl |  Obj  Depth IntInf | Incumbent    BestBd   Gap | It/Node Time

     0     0   43.00000    0   42   16.00000   43.00000   169%     -    0s
H    0     0                      20.0000000   43.00000   115%     -    0s
H    0     0                      25.0000000   43.00000  72.0%     -    0s
     0     0   43.00000    0   42   25.00000   43.00000  72.0%     -    0s
     0     0   43.00000    0   40   25.00000   43.00000  72.0%     -    0s
     0     0   43.00000    0   29   25.00000   43.00000  72.0%     -    0s
     0     0   43.00000    0   39   25.00000   43.00000  72.0%     -    0s
     0     0   43.00000    0   39   25.00000   43.00000  72.0%     -    0s
     0     0   43.00000    0   44   25.00000   43.00000  72.0%     -    0s
     0     0   43.00000    0   42   25.00000   43.00000  72.0%     -    0s
H    0     0                      26.0000000   43.00000  65.4%     -    0s
     0     0   43.00000    0   43   26.00000   43.00000  65.4%     -    0s
     0     0   43.00000    0   32   26.00000   43.00000  65.4%     -    0s
     0     0   43.00000    0   43   26.00000   43.00000  65.4%     -    0s
     0     0   43.00000    0   42   26.00000   43.00000  65.4%     -    0s
     0     0   43.00000    0   44   26.00000   43.00000  65.4%     -    0s
     0     0   43.00000    0   42   26.00000   43.00000  65.4%     -    0s
     0     0   43.00000    0   42   26.00000   43.00000  65.4%     -    0s
     0     0   43.00000    0   40   26.00000   43.00000  65.4%     -    0s
     0     2   43.00000    0   40   26.00000   43.00000  65.4%     -    0s

Cutting planes:
  Gomory: 7
  Cover: 64
  Inf proof: 38

Explored 8052 nodes (88132 simplex iterations) in 0.36 seconds (0.26 work units)
Thread count was 16 (of 16 available processors)

Solution count 5: 26 25 20 ... 10

Optimal solution found (tolerance 1.00e-04)
Best objective 2.600000000000e+01, best bound 2.600000000000e+01, gap 0.0000%

Wrote result file '/root/bgw/data/results/2026_03_24_00_33_37_set_set_set_s004_g006_max.sol'

